TYPE : Vertex Cover
DIMENSION: 33
EDGE_DATA_SECTION:
0 3
0 9
0 20
0 23
0 25
0 26
0 27
0 32
1 9
1 11
1 17
1 24
1 31
2 6
2 7
2 14
2 18
2 22
2 25
3 10
3 15
3 20
3 29
4 12
4 13
4 14
4 18
4 21
4 27
4 30
5 7
5 9
5 17
5 31
6 9
6 10
6 16
6 17
6 30
7 16
7 19
7 29
7 30
8 25
9 31
10 14
10 18
10 19
10 21
10 26
11 15
11 16
11 18
11 21
11 22
11 23
11 25
11 28
11 29
12 16
12 19
12 27
13 17
13 18
13 23
14 24
15 25
15 32
16 21
16 24
17 18
17 19
17 25
17 28
17 32
18 32
19 21
19 24
19 30
19 31
20 24
20 32
21 26
21 29
21 32
26 31
26 32
27 32
28 30
28 32
-1
VERTEX_DEGREE:
8.0 5.0 6.0 5.0 7.0 4.0 6.0 6.0 1.0 5.0 7.0 10.0 4.0 4.0 4.0 4.0 6.0 9.0 7.0 8.0 4.0 8.0 2.0 3.0 5.0 6.0 5.0 4.0 4.0 4.0 5.0 5.0 9.0
VERTEX_COVER:
0 2 3 4 6 7 9 10 11 12 13 17 21 24 25 30 31 32
EOF
